p ocr 134 125 281
3 188
7 188
16 188
19 188
20 188
21 188
24 188
26 188
27 188
29 188
34 188
37 188
38 188
41 188
53 188
56 188
62 188
64 188
70 140
70 142
70 146
70 149
70 153
70 155
70 164
70 166
70 169
70 173
70 182
70 183
70 185
70 187
70 188
70 189
70 191
70 195
70 200
70 201
70 202
70 204
70 208
70 209
70 210
70 212
70 213
70 215
70 219
70 225
70 226
70 231
70 237
70 245
70 246
70 248
70 249
70 256
70 257
73 188
75 188
76 135
76 136
76 140
76 141
76 143
76 145
76 148
76 150
76 152
76 155
76 159
76 163
76 164
76 165
76 167
76 169
76 171
76 175
76 176
76 177
76 178
76 181
76 186
76 188
76 193
76 199
76 201
76 205
76 206
76 208
76 209
76 218
76 224
76 225
76 226
76 227
76 228
76 233
76 235
76 236
76 243
76 249
76 252
76 253
76 255
76 256
76 257
77 188
82 188
84 188
86 188
87 188
89 188
90 188
92 188
93 135
93 137
93 138
93 139
93 140
93 143
93 146
93 147
93 148
93 152
93 153
93 158
93 159
93 162
93 165
93 166
93 169
93 170
93 174
93 176
93 177
93 179
93 180
93 183
93 184
93 185
93 188
93 189
93 194
93 197
93 202
93 203
93 205
93 207
93 209
93 214
93 216
93 219
93 220
93 221
93 222
93 223
93 224
93 231
93 234
93 238
93 239
93 240
93 241
93 244
93 246
93 248
93 249
93 250
93 256
93 258
93 259
95 188
97 188
98 135
98 139
98 140
98 148
98 150
98 154
98 155
98 156
98 157
98 159
98 161
98 163
98 169
98 170
98 171
98 174
98 177
98 178
98 183
98 188
98 190
98 191
98 193
98 194
98 196
98 197
98 199
98 200
98 201
98 205
98 209
98 210
98 211
98 218
98 219
98 226
98 228
98 229
98 234
98 242
98 243
98 246
98 248
98 250
98 253
100 188
103 188
107 188
109 188
111 188
112 188
114 188
117 136
117 138
117 144
117 146
117 149
117 152
117 153
117 156
117 158
117 160
117 167
117 169
117 170
117 173
117 174
117 175
117 177
117 180
117 181
117 186
117 188
117 191
117 193
117 194
117 195
117 196
117 197
117 198
117 200
117 201
117 203
117 209
117 212
117 219
117 222
117 225
117 230
117 234
117 237
117 239
117 241
117 242
117 245
117 246
117 248
117 250
117 252
117 257
117 259
119 188
123 188
124 188
129 188
130 188
131 188
134 188